experiment/data/lkh-res/Vrp-Set-X-n219/Vrp-Set-X-n219-lkh/0.lkh1.vrp
NAME : 0
COMMENT : CVRP Instance
TYPE : CVRP
DIMENSION : 219
EDGE_WEIGHT_TYPE : EUC_2D
CAPACITY : 3
NODE_COORD_SECTION
1	0	0
2	1800	76100
3	83500	39700
4	29900	1600
5	3100	16800
6	14200	25700
7	24200	98400
8	61200	35700
9	66300	81200
10	10500	18800
11	48700	63600
12	99300	70300
13	67200	14800
14	50600	25900
15	95300	70600
16	88800	20300
17	10700	53400
18	77200	69200
19	47500	18200
20	82800	77500
21	71900	22000
22	65500	72200
23	84400	19700
24	91800	60000
25	46000	84400
26	73900	10200
27	30100	52300
28	34100	62700
29	98900	93600
30	93500	60200
31	4400	7200
32	86100	6700
33	16300	41600
34	98100	50300
35	72200	39700
36	31700	90300
37	54700	9500
38	94400	10600
39	93500	19200
40	12800	37600
41	90800	17600
42	72000	22600
43	73800	79300
44	79100	49800
45	71200	75100
46	53000	69300
47	14100	67300
48	38000	54400
49	63400	30100
50	42700	85300
51	60600	94900
52	4700	55700
53	4800	20200
54	79100	6700
55	54600	87600
56	52600	84200
57	53500	21600
58	82800	21400
59	82900	35200
60	62300	47300
61	37400	100000
62	7400	18700
63	27500	41500
64	72600	78900
65	5100	59700
66	89400	39500
67	15900	74300
68	30100	89300
69	75500	94600
70	97800	26100
71	70900	15300
72	39100	15300
73	87600	37000
74	84600	72500
75	60400	10700
76	11700	70900
77	50700	8900
78	34800	74400
79	47600	20400
80	18100	95700
81	94800	71000
82	15800	78800
83	41400	68500
84	35800	6600
85	19600	73200
86	28300	34300
87	45600	93100
88	500	46800
89	45900	4300
90	55500	41400
91	9400	96400
92	55800	36000
93	64100	42400
94	13200	1600
95	77700	94700
96	2500	20500
97	85200	4500
98	500	68600
99	40000	68200
100	50100	23400
101	90500	96800
102	49200	97100
103	81700	11400
104	65100	94100
105	81700	64300
106	73500	93700
107	33300	82900
108	22300	58400
109	30600	41200
110	20900	66300
111	20600	54900
112	54200	69100
113	29600	1000
114	21500	74700
115	14800	64100
116	900	55300
117	41100	5900
118	38200	80000
119	82400	61200
120	60800	72700
121	48100	57400
122	16900	95000
123	35000	60800
124	39600	53600
125	3600	45900
126	35900	33900
127	79800	91700
128	1000	56900
129	81300	1000
130	56900	62700
131	69200	46700
132	16600	17800
133	24700	41300
134	73800	48700
135	50800	32700
136	15800	98600
137	98300	24400
138	63700	10900
139	17700	20700
140	35700	37400
141	36100	97200
142	36500	70100
143	58200	95700
144	71200	99600
145	93200	45200
146	84700	98100
147	6000	6600
148	25200	26700
149	94400	43500
150	33800	68800
151	90000	16800
152	58300	87100
153	85200	5900
154	92100	7200
155	84500	53400
156	38700	25300
157	81200	35400
158	500	40400
159	59000	57500
160	93000	12800
161	18400	74200
162	83200	46600
163	28500	34600
164	54800	97600
165	3200	53100
166	96600	5800
167	3100	4000
168	16200	53900
169	62100	42500
170	80200	49500
171	38500	49300
172	76900	32900
173	92100	1500
174	6400	10600
175	85400	67800
176	94300	12200
177	10300	28500
178	30400	73900
179	39800	21200
180	33500	45900
181	4300	10800
182	40000	25500
183	93500	85100
184	17900	14700
185	82200	74900
186	6000	3200
187	82900	99200
188	78300	76000
189	21800	36000
190	32100	46300
191	40300	17200
192	3200	13400
193	21800	49000
194	4400	45600
195	43000	57000
196	89600	87500
197	50900	57200
198	42400	93600
199	63900	50500
200	91400	85200
201	98400	43500
202	47900	34100
203	20700	93700
204	70900	70000
205	23500	79500
206	55700	13000
207	27000	96400
208	48200	32000
209	6000	76100
210	83600	27200
211	41300	32700
212	50900	37900
213	96100	32900
214	81900	75400
215	17600	91000
216	64800	80900
217	64000	89200
218	83800	7900
219	55200	23200
DEMAND_SECTION
1	0
2	1
3	1
4	1
5	1
6	1
7	1
8	1
9	1
10	1
11	1
12	1
13	1
14	1
15	1
16	1
17	1
18	1
19	1
20	1
21	1
22	1
23	1
24	1
25	1
26	1
27	1
28	1
29	1
30	1
31	1
32	1
33	1
34	1
35	1
36	1
37	1
38	1
39	1
40	1
41	1
42	1
43	1
44	1
45	1
46	1
47	1
48	1
49	1
50	1
51	1
52	1
53	1
54	1
55	1
56	1
57	1
58	1
59	1
60	1
61	1
62	1
63	1
64	1
65	1
66	1
67	1
68	1
69	1
70	1
71	1
72	1
73	1
74	1
75	1
76	1
77	1
78	1
79	1
80	1
81	1
82	1
83	1
84	1
85	1
86	1
87	1
88	1
89	1
90	1
91	1
92	1
93	1
94	1
95	1
96	1
97	1
98	1
99	1
100	1
101	1
102	1
103	1
104	1
105	1
106	1
107	1
108	1
109	1
110	1
111	1
112	1
113	1
114	1
115	1
116	1
117	1
118	1
119	1
120	1
121	1
122	1
123	1
124	1
125	1
126	1
127	1
128	1
129	1
130	1
131	1
132	1
133	1
134	1
135	1
136	1
137	1
138	1
139	1
140	1
141	1
142	1
143	1
144	1
145	1
146	1
147	1
148	1
149	1
150	1
151	1
152	1
153	1
154	1
155	1
156	1
157	1
158	1
159	1
160	1
161	1
162	1
163	1
164	1
165	1
166	1
167	1
168	1
169	1
170	1
171	1
172	1
173	1
174	1
175	1
176	1
177	1
178	1
179	1
180	1
181	1
182	1
183	1
184	1
185	1
186	1
187	1
188	1
189	1
190	1
191	1
192	1
193	1
194	1
195	1
196	1
197	1
198	1
199	1
200	1
201	1
202	1
203	1
204	1
205	1
206	1
207	1
208	1
209	1
210	1
211	1
212	1
213	1
214	1
215	1
216	1
217	1
218	1
219	1
DEPOT_SECTION
1
-1
EOF
