experiment/data/lkh-res/Vrp-Set-X-n219/Vrp-Set-X-n219-lkh/0.lkh1.tour
NAME : 0.11768974.tour
COMMENT : Length = 11768974
COMMENT : Found by LKH-3 [Keld Helsgaun] Tue Apr  9 04:15:21 2024
TYPE : TOUR
DIMENSION : 291
TOUR_SECTION
1
167
186
220
103
23
58
274
180
190
193
267
17
168
111
281
202
208
14
275
3
73
210
258
54
97
129
256
70
137
39
228
119
105
18
255
104
51
143
278
57
219
100
268
145
149
66
264
211
140
126
257
133
63
109
260
19
79
191
246
115
47
76
287
161
82
67
259
98
2
209
284
205
207
7
248
45
43
64
276
128
65
52
271
85
114
110
234
68
36
107
251
194
125
158
241
40
33
189
245
144
69
106
280
151
41
16
291
90
60
199
252
172
59
157
239
84
117
72
244
123
28
108
288
188
20
214
253
89
37
77
261
160
176
38
265
154
166
173
225
218
32
153
266
165
116
88
254
156
182
179
250
159
130
197
286
75
138
206
277
95
187
146
238
169
93
8
227
62
53
96
229
83
99
142
232
35
134
131
240
148
163
86
247
122
136
91
270
13
71
26
233
132
139
184
231
10
6
177
237
120
22
204
279
164
102
87
249
150
78
178
236
203
80
215
242
198
61
141
272
29
101
127
230
49
42
21
262
213
201
34
222
147
174
31
221
12
15
81
263
196
200
183
273
112
46
11
282
175
74
185
269
118
50
25
243
24
30
155
223
181
5
192
226
162
170
44
224
94
4
113
235
56
55
152
283
124
195
121
289
171
48
27
285
135
92
212
290
217
9
216
-1
EOF
